Using license file /home/benedond/gurobi.lic
Using gurobi.env file
Set parameter Threads to value 1
Academic license - for non-commercial use only
Changed value of parameter TimeLimit to 300.0
   Prev: inf  Min: 0.0  Max: inf  Default: inf
Gurobi Optimizer version 9.0.1 build v9.0.1rc0 (linux64)
Optimize a model with 6624 rows, 6348 columns and 31126 nonzeros
Model fingerprint: 0x034dc3aa
Variable types: 110 continuous, 6238 integer (6238 binary)
Coefficient statistics:
  Matrix range     [2e-01, 5e+02]
  Objective range  [4e-03, 2e-01]
  Bounds range     [1e+00, 1e+00]
  RHS range        [1e+00, 2e+03]
Presolve removed 135 rows and 114 columns
Presolve time: 0.11s
Presolved: 6489 rows, 6234 columns, 30654 nonzeros
Variable types: 109 continuous, 6125 integer (6125 binary)

Root relaxation: objective 1.833246e+00, 6228 iterations, 0.56 seconds

    Nodes    |    Current Node    |     Objective Bounds      |     Work
 Expl Unexpl |  Obj  Depth IntInf | Incumbent    BestBd   Gap | It/Node Time

     0     0    1.83325    0  331          -    1.83325      -     -    0s
     0     0    1.99535    0  342          -    1.99535      -     -    1s
     0     0    1.99639    0  260          -    1.99639      -     -    1s
     0     0    2.07696    0  322          -    2.07696      -     -    1s
     0     0    2.08258    0  320          -    2.08258      -     -    1s
     0     0    2.16290    0  327          -    2.16290      -     -    2s
H    0     0                       4.3679390    2.16290  50.5%     -    2s
H    0     0                       3.4089065    2.16290  36.6%     -    5s
     0     0    2.19324    0  357    3.40891    2.19324  35.7%     -    6s
     0     0    2.20192    0  328    3.40891    2.20192  35.4%     -    6s
     0     0    2.20550    0  398    3.40891    2.20550  35.3%     -    6s
     0     0    2.20813    0  300    3.40891    2.20813  35.2%     -    6s
     0     0    2.20899    0  361    3.40891    2.20899  35.2%     -    6s
     0     0    2.20938    0  374    3.40891    2.20938  35.2%     -    6s
     0     0    2.21018    0  366    3.40891    2.21018  35.2%     -    6s
     0     0    2.21058    0  399    3.40891    2.21058  35.2%     -    6s
     0     0    2.21067    0  354    3.40891    2.21067  35.2%     -    6s
     0     0    2.24537    0  374    3.40891    2.24537  34.1%     -    7s
     0     0    2.26226    0  337    3.40891    2.26226  33.6%     -    8s
     0     0    2.26682    0  330    3.40891    2.26682  33.5%     -    8s
     0     0    2.26835    0  341    3.40891    2.26835  33.5%     -    8s
     0     0    2.26909    0  363    3.40891    2.26909  33.4%     -    8s
     0     0    2.26911    0  375    3.40891    2.26911  33.4%     -    8s
     0     0    2.28198    0  376    3.40891    2.28198  33.1%     -    8s
     0     0    2.28398    0  334    3.40891    2.28398  33.0%     -    8s
     0     0    2.28501    0  330    3.40891    2.28501  33.0%     -    8s
     0     0    2.28535    0  365    3.40891    2.28535  33.0%     -    8s
     0     0    2.28550    0  343    3.40891    2.28550  33.0%     -    8s
     0     0    2.28880    0  364    3.40891    2.28880  32.9%     -    9s
     0     0    2.29002    0  409    3.40891    2.29002  32.8%     -    9s
     0     0    2.29009    0  441    3.40891    2.29009  32.8%     -    9s
     0     0    2.29514    0  379    3.40891    2.29514  32.7%     -    9s
     0     0    2.29610    0  366    3.40891    2.29610  32.6%     -    9s
     0     0    2.29644    0  349    3.40891    2.29644  32.6%     -    9s
     0     0    2.29664    0  365    3.40891    2.29664  32.6%     -    9s
     0     0    2.30044    0  352    3.40891    2.30044  32.5%     -   10s
     0     0    2.30197    0  325    3.40891    2.30197  32.5%     -   10s
     0     0    2.30265    0  419    3.40891    2.30265  32.5%     -   10s
     0     0    2.30282    0  417    3.40891    2.30282  32.4%     -   10s
     0     0    2.30904    0  387    3.40891    2.30904  32.3%     -   10s
     0     0    2.31015    0  372    3.40891    2.31015  32.2%     -   10s
     0     0    2.31072    0  382    3.40891    2.31072  32.2%     -   10s
     0     0    2.31076    0  385    3.40891    2.31076  32.2%     -   10s
     0     0    2.31403    0  352    3.40891    2.31403  32.1%     -   11s
     0     0    2.31505    0  372    3.40891    2.31505  32.1%     -   11s
     0     0    2.31517    0  366    3.40891    2.31517  32.1%     -   11s
     0     0    2.31764    0  406    3.40891    2.31764  32.0%     -   11s
     0     0    2.31764    0  400    3.40891    2.31764  32.0%     -   14s
     0     2    2.31764    0  400    3.40891    2.31764  32.0%     -   16s
     7     9    2.32342    5  346    3.40891    2.32087  31.9%   919   20s
H   27    27                       3.3448902    2.32087  30.6%   609   30s
    78    80    2.49148   68  279    3.34489    2.32087  30.6%   400   35s
   120   122    2.46633  102  216    3.34489    2.32087  30.6%   452   40s
H  168   168                       3.2391992    2.32087  28.4%   486   49s
   172   174    2.82905  140  201    3.23920    2.32087  28.4%   491   50s
H  203   203                       3.2391992    2.32087  28.4%   476   55s
   283   285    2.90732  231  143    3.23920    2.32087  28.4%   428   60s
   428   400    2.35156   14  314    3.23920    2.32092  28.3%   360   65s
H  456   366                       3.1199675    2.32092  25.6%   364   75s
   490   402    2.45541   65  331    3.11997    2.32092  25.6%   374   80s
H  510   413                       3.0830691    2.32092  24.7%   379   87s
   513   415    2.59213  132  304    3.08307    2.32092  24.7%   377   91s
   519   419    2.63595   95  368    3.08307    2.32588  24.6%   373   95s
   528   425    2.58023   67  384    3.08307    2.36644  23.2%   366  100s
   536   431    2.47684   55  418    3.08307    2.38232  22.7%   361  105s
H  541   411                       3.0816381    2.39254  22.4%   358  122s
   545   414    2.39612   65  443    3.08164    2.39612  22.2%   355  125s
   553   419    2.54417  119  464    3.08164    2.40542  21.9%   350  130s
   562   425    2.46364   65  469    3.08164    2.40945  21.8%   344  135s
   569   430    2.59675  131  511    3.08164    2.41406  21.7%   340  140s
   577   435    2.82182  221  465    3.08164    2.41776  21.5%   335  145s
   586   441    2.77989  181  535    3.08164    2.42076  21.4%   330  150s
   594   446    2.91584  215  487    3.08164    2.42272  21.4%   326  155s
   601   451    2.42427   37  475    3.08164    2.42427  21.3%   322  160s
   609   456    2.47163   75  479    3.08164    2.42607  21.3%   318  165s
   616   461    2.42780   19  512    3.08164    2.42780  21.2%   314  170s
   623   466    2.67903  138  487    3.08164    2.42970  21.2%   311  175s
   629   470    2.48432   69  478    3.08164    2.43097  21.1%   308  180s
   636   474    2.47684   55  499    3.08164    2.43287  21.1%   304  185s
   643   479    2.72416   78  553    3.08164    2.43458  21.0%   301  190s
   649   483    2.98921  245  464    3.08164    2.43598  21.0%   298  195s
   655   487    2.43739   33  513    3.08164    2.43739  20.9%   295  200s
   662   492    2.46364   65  558    3.08164    2.43879  20.9%   292  205s
   668   496    2.69049  161  496    3.08164    2.44055  20.8%   290  210s
   673   499    2.75231  193  559    3.08164    2.44185  20.8%   287  215s
   680   504    2.71503  146  462    3.08164    2.44281  20.7%   285  220s
   688   510    2.77298  174  278    3.08164    2.44292  20.7%   552  226s
   694   514    2.91584  215  452    3.08164    2.44292  20.7%   548  230s
   700   518    2.48276  109  461    3.08164    2.44292  20.7%   543  235s
H  707   496                       3.0579756    2.44394  20.1%   538  255s
   715   501    2.48093  110  544    3.05798    2.44522  20.0%   532  260s
   719   504    2.63595   95  433    3.05798    2.44623  20.0%   529  266s
   725   508    2.75676  201  465    3.05798    2.44771  20.0%   524  270s
   732   512    2.47275   61  537    3.05798    2.44887  19.9%   519  275s
   741   518    2.44967   17  565    3.05798    2.44967  19.9%   513  280s
   748   523    2.46727   98  530    3.05798    2.45031  19.9%   508  285s

Cutting planes:
  Gomory: 1
  Cover: 25
  Implied bound: 6
  Projected implied bound: 3
  Clique: 15
  MIR: 252
  StrongCG: 4
  Flow cover: 669
  Zero half: 12
  Mod-K: 2
  RLT: 33
  Relax-and-lift: 378

Explored 749 nodes (485999 simplex iterations) in 300.06 seconds
Thread count was 1 (of 4 available processors)

Solution count 9: 3.05798 3.08164 3.08307 ... 4.36794

Time limit reached
Best objective 3.057975617778e+00, best bound 2.450393830140e+00, gap 19.8688%
